
******************************************************************************
This program contains Ipopt, a library for large-scale nonlinear optimization.
 Ipopt is released as open source code under the Eclipse Public License (EPL).
         For more information visit https://github.com/coin-or/Ipopt
******************************************************************************

This is Ipopt version 3.14.19, running with linear solver MUMPS 5.8.1.

Number of nonzeros in equality constraint Jacobian...:     4389
Number of nonzeros in inequality constraint Jacobian.:        0
Number of nonzeros in Lagrangian Hessian.............:     1050

Total number of variables............................:     1287
                     variables with only lower bounds:        0
                variables with lower and upper bounds:      457
                     variables with only upper bounds:        0
Total number of equality constraints.................:     1274
Total number of inequality constraints...............:        0
        inequality constraints with only lower bounds:        0
   inequality constraints with lower and upper bounds:        0
        inequality constraints with only upper bounds:        0

iter    objective    inf_pr   inf_du lg(mu)  ||d||  lg(rg) alpha_du alpha_pr  ls
   0  9.8543447e+00 9.84e+01 4.56e-04  -1.0 0.00e+00    -  0.00e+00 0.00e+00   0
   1  9.8545636e+00 9.15e-03 2.17e+01  -1.0 9.79e+01    -  4.26e-02 1.00e+00h  1
   2  9.8545814e+00 2.75e-03 1.65e-01  -1.0 1.88e-01    -  9.50e-01 1.00e+00h  1
   3  9.8620364e+00 4.74e-03 1.73e+00  -1.0 3.26e+00    -  6.73e-01 1.00e+00f  1
   4  9.8654113e+00 2.31e-02 2.18e+00  -1.0 2.94e+00    -  9.97e-01 3.01e-01f  2
   5  9.8742975e+00 2.71e-01 7.75e-04  -1.0 8.74e-01    -  1.00e+00 1.00e+00h  1
   6  9.8634449e+00 5.69e-01 2.15e-03  -1.7 1.08e+00    -  1.00e+00 1.00e+00h  1
   7  9.8627277e+00 4.21e-02 1.29e-05  -1.7 7.47e-01    -  1.00e+00 1.00e+00h  1
   8  9.8621681e+00 8.98e-02 1.27e-04  -2.5 6.61e-01    -  1.00e+00 1.00e+00h  1
   9  9.8617905e+00 3.81e-04 6.18e-06  -2.5 1.53e-01    -  1.00e+00 1.00e+00h  1
iter    objective    inf_pr   inf_du lg(mu)  ||d||  lg(rg) alpha_du alpha_pr  ls
  10  9.8612487e+00 3.25e-03 1.02e-02  -3.8 2.25e-01    -  8.32e-01 1.00e+00h  1
  11  9.8526399e+00 2.45e-03 3.35e-03  -3.8 3.72e+00    -  4.05e-01 1.00e+00h  1
  12  9.8513743e+00 7.05e-05 8.56e-05  -3.8 7.37e-01    -  1.00e+00 1.00e+00h  1
  13  9.8481135e+00 4.06e-04 5.42e-04  -5.7 1.59e+00    -  7.83e-01 1.00e+00h  1
  14  9.8479035e+00 2.11e-06 2.50e-06  -5.7 1.29e-01    -  1.00e+00 1.00e+00h  1
  15  9.8478741e+00 6.84e-07 2.33e-04  -8.6 3.03e-01    -  6.22e-01 6.89e-01h  1
  16  9.8478593e+00 3.06e-08 1.70e-04  -8.6 1.92e-01    -  1.00e+00 9.67e-01h  1
  17  9.8478593e+00 1.30e-11 6.37e-06  -8.6 6.10e-04    -  9.99e-01 1.00e+00f  1
  18  9.8478593e+00 9.99e-16 5.55e-16  -8.6 3.00e-04    -  1.00e+00 1.00e+00h  1

Number of Iterations....: 18

                                   (scaled)                 (unscaled)
Objective...............:   9.8478593013609341e+00    9.8478593013609341e+00
Dual infeasibility......:   5.5511151231257827e-16    5.5511151231257827e-16
Constraint violation....:   4.4408920985006262e-16    9.9920072216264089e-16
Variable bound violation:   0.0000000000000000e+00    0.0000000000000000e+00
Complementarity.........:   3.2523144639772758e-09    3.2523144639772758e-09
Overall NLP error.......:   3.2523144639772758e-09    3.2523144639772758e-09


Number of objective function evaluations             = 22
Number of objective gradient evaluations             = 19
Number of equality constraint evaluations            = 22
Number of inequality constraint evaluations          = 0
Number of equality constraint Jacobian evaluations   = 19
Number of inequality constraint Jacobian evaluations = 0
Number of Lagrangian Hessian evaluations             = 18
Total seconds in IPOPT                               = 0.123

EXIT: Optimal Solution Found.
